NAME : ClusterId_251 
COMMENT : (Gillet and Johnson) 
TYPE : CVRP 
DIMENSION : 4 
EDGE_WEIGHT_TYPE : EUC_2D 
CAPACITY : 500 
NODE_COORD_SECTION 
251 33 -33 
201 50 -37 
247 17 -35 
209 26 -37 
DEMAND_SECTION 
251 100
201 11
247 65
209 19
DEPOT_SECTION 
251
 -1
EOF